961 961 10 
1 3 32 34 63 64 65 
2 33 
3 4 34 35 65 
3 4 6 34 35 
5 36 37 67 
4 6 35 
7 8 37 38 39 40 
7 8 38 39 40 41 
9 10 11 
9 10 11 
9 10 11 
12 42 43 44 45 73 
13 14 
13 14 16 47 
15 45 46 76 
14 16 17 18 48 
15 16 17 
16 18 19 48 49 80 
18 19 49 50 81 
20 21 22 51 52 82 
21 23 51 
22 24 52 53 54 
21 23 55 
22 24 25 53 54 
25 54 
26 27 55 56 57 58 
26 27 28 57 58 59 60 89 
27 28 58 59 60 61 91 
29 30 31 
29 30 31 
29 30 31 
1 32 63 64 65 94 
2 33 96 
3 34 66 
4 35 65 66 
5 36 37 67 68 
5 7 36 37 38 67 68 69 
7 8 37 38 39 68 69 70 
7 8 38 39 40 69 70 71 
8 39 40 41 70 71 72 
40 41 42 71 72 73 
12 41 42 43 72 73 74 
12 42 43 44 73 74 75 
12 43 44 45 46 74 75 76 
15 44 45 46 75 76 77 
15 44 45 46 76 77 
16 47 48 78 79 
47 48 49 78 79 80 
19 48 49 50 79 80 81 
18 19 49 50 80 81 
20 21 51 52 82 
20 22 52 83 84 
22 53 54 83 
22 24 54 55 
25 55 56 57 86 
26 55 56 57 86 87 
26 27 56 57 58 87 89 
28 58 89 90 
27 28 58 59 60 89 90 91 
28 59 60 61 90 91 92 
60 61 62 91 92 93 
60 61 62 91 92 93 124 
1 32 63 64 94 95 125 
32 63 64 65 94 95 126 
35 64 65 66 97 
35 65 66 97 
5 36 37 67 68 98 99 
37 68 99 100 
38 39 69 70 100 
38 39 40 69 70 71 100 102 
39 40 41 70 71 72 
40 71 72 73 
41 42 43 72 73 74 105 
43 44 73 74 75 105 
43 44 74 75 106 
44 45 46 75 76 77 106 107 
46 75 76 77 107 108 109 
47 48 78 79 
47 48 49 78 79 80 
48 49 50 79 80 81 111 
49 50 79 80 81 
51 52 82 112 114 
52 53 83 113 
52 84 85 114 
55 84 85 86 115 116 117 
55 56 85 86 87 117 118 
57 86 87 88 117 
57 86 87 88 89 118 119 
57 58 88 89 90 119 
58 60 89 90 91 122 
59 60 61 90 91 92 123 
61 91 92 93 124 
61 62 91 92 93 123 124 155 
32 63 64 94 95 125 126 156 
64 94 95 97 125 126 157 
33 96 
65 66 95 97 126 128 
67 68 98 99 
67 68 69 98 99 100 
68 69 70 99 100 101 
69 70 100 101 102 
70 71 72 101 102 103 
71 72 73 102 103 104 
72 73 74 103 104 105 
73 74 104 105 106 
74 75 76 105 106 107 
75 76 77 106 107 108 139 
76 77 107 108 109 139 
108 109 110 139 140 141 
109 110 112 140 141 142 
80 111 143 
110 112 113 142 
83 112 113 143 
82 84 114 115 144 145 
85 115 116 145 146 147 
115 116 117 146 147 148 
116 117 118 147 148 149 
117 118 119 148 149 150 
88 118 119 149 150 
120 151 
121 152 153 
90 92 122 123 
91 92 122 123 124 
92 93 123 124 
64 94 95 125 126 156 157 187 
95 97 125 126 156 157 158 
127 
66 97 128 129 158 159 160 
128 129 130 131 159 160 161 
129 130 131 160 161 162 
130 131 132 161 162 163 
131 132 133 162 163 164 
132 133 134 163 164 165 
133 134 135 164 165 
135 136 166 167 
136 137 167 
136 137 138 167 
137 138 140 
107 108 109 139 169 170 171 
138 140 
109 110 141 171 172 
112 142 174 
111 113 143 
114 144 145 146 174 175 176 
115 144 145 146 175 176 177 
115 116 145 146 147 176 177 
115 116 117 147 148 177 
117 118 148 149 179 180 
118 119 148 149 180 181 
118 119 149 150 180 181 182 
120 151 
121 152 153 182 183 184 
121 152 153 154 183 184 185 
153 154 155 184 185 186 
153 154 155 185 186 
95 156 187 188 
125 126 156 157 158 187 188 189 
126 128 157 158 159 188 189 190 
128 129 158 159 160 189 190 191 
130 160 161 191 192 
130 160 161 191 192 
132 162 163 193 194 
132 162 163 194 
132 133 134 163 164 165 194 195 
133 134 164 165 195 
135 166 196 197 
135 136 137 167 199 
168 169 200 
139 168 169 170 200 
139 169 170 171 200 
139 141 170 171 172 203 
141 171 172 173 203 
141 172 173 174 205 
142 144 173 174 175 205 206 
144 145 175 176 205 206 207 
145 146 176 177 207 208 
145 147 176 177 178 207 208 
148 177 178 179 208 210 
148 149 178 179 180 211 
148 149 179 180 181 212 
149 150 180 181 182 211 212 213 
150 152 181 182 183 212 213 214 
152 153 182 183 184 213 214 215 
152 184 185 214 215 216 
153 154 184 185 186 215 216 217 
154 155 185 186 216 217 247 248 
156 187 188 218 219 250 
156 157 158 188 189 219 
159 188 189 219 221 
190 220 
160 161 191 192 223 
160 161 191 192 223 
162 193 194 
162 164 194 195 225 226 
163 164 165 194 195 225 226 
166 196 197 227 
166 196 197 227 259 
198 
167 198 199 229 
169 170 200 230 231 232 
201 202 
201 202 
171 172 203 233 234 
204 235 
173 174 175 205 206 236 237 
175 205 206 207 236 237 
175 177 207 208 239 
177 178 207 208 239 
209 210 240 241 
178 209 210 241 242 
179 180 210 211 242 243 
180 181 212 213 244 
181 182 183 212 213 214 244 245 
213 214 215 245 246 
184 214 215 216 245 246 247 
184 215 216 217 246 247 
185 186 216 217 247 248 278 279 
187 218 220 249 250 280 
187 188 189 219 
220 221 250 251 252 
189 220 221 222 251 252 
221 222 252 
191 192 223 224 253 254 
194 223 224 225 255 256 
194 225 226 255 256 257 
195 225 226 228 256 257 
196 197 227 228 258 259 
227 228 229 
199 228 229 261 
200 230 231 262 
200 230 231 232 262 
200 231 232 233 262 
203 232 233 
202 203 233 234 264 265 
204 235 266 
205 206 234 236 237 267 268 
206 207 237 269 299 
207 208 238 239 270 
207 208 238 239 270 
209 210 240 241 271 272 
209 210 240 241 242 273 
210 211 241 242 243 273 274 
211 242 243 274 275 
212 213 214 244 245 276 
213 214 215 244 245 246 276 277 
215 216 245 246 276 
216 217 247 248 277 279 
217 247 248 279 
249 250 280 311 312 
218 220 249 250 251 282 
220 221 250 251 282 
220 221 251 252 282 
223 253 254 
223 253 254 284 285 
225 255 256 286 287 
226 256 257 286 
225 226 256 257 287 288 289 
227 258 259 290 
197 227 258 259 290 
260 261 
229 260 261 291 
230 231 232 262 293 294 
263 264 
234 263 264 265 
234 264 265 295 296 
235 266 297 
236 267 268 299 330 
236 237 238 267 268 269 299 300 
237 239 269 270 301 
238 239 269 270 301 
240 241 271 272 302 303 
271 272 303 
241 242 273 274 304 305 
242 243 273 274 275 305 306 
243 274 275 306 307 
244 245 246 276 277 308 
245 246 247 276 277 308 309 
278 310 
217 247 248 279 309 340 
249 280 311 312 342 
281 
250 251 282 313 314 
251 282 283 284 313 314 
254 283 284 285 314 316 
253 254 284 285 316 
255 256 286 287 317 318 
255 257 287 319 
256 257 287 288 289 318 319 
257 288 289 319 
258 259 290 291 320 321 
261 290 291 323 
292 293 324 
262 292 293 294 324 
262 293 294 295 324 325 
294 295 296 325 
265 295 296 326 358 
266 297 298 327 328 
297 298 328 329 
267 268 269 299 300 330 331 
268 269 299 300 
269 270 301 332 333 
271 302 303 333 334 
271 272 303 304 335 
303 304 335 336 
273 274 305 336 337 
274 275 305 306 337 338 
275 307 339 
276 277 278 308 309 340 
277 279 308 309 310 340 341 
278 309 310 340 341 372 
249 280 311 313 342 373 
280 311 312 313 343 
282 312 313 343 345 
282 283 284 314 
315 345 346 
284 285 286 316 317 347 348 
286 287 317 318 348 
286 317 318 348 350 
287 288 289 318 319 349 350 
290 320 321 351 
290 320 321 351 
260 322 323 353 354 
291 322 323 353 354 
292 293 294 324 325 355 
294 295 324 325 
296 326 356 358 
297 327 328 357 
297 298 327 328 329 359 
298 328 329 359 360 
299 300 330 331 361 362 
299 300 330 331 362 363 
301 302 332 333 
301 302 333 334 365 
302 333 334 365 366 
303 304 335 
304 305 335 336 366 367 
305 306 337 338 368 369 
306 337 338 369 370 
307 339 370 371 
308 309 310 340 341 372 
279 309 310 340 341 372 
280 311 312 313 342 343 373 374 
312 343 344 373 
343 344 345 375 406 
313 314 315 344 345 346 375 376 
314 315 316 345 346 347 376 378 
316 317 346 347 348 378 379 
316 317 318 347 348 349 
317 318 348 349 350 379 381 
318 319 349 350 380 381 
320 321 351 383 
352 354 382 384 
322 323 353 
322 323 353 354 384 
292 324 355 385 386 387 
326 356 
326 327 356 357 359 
296 358 389 
328 329 359 360 
329 359 360 
330 331 361 362 391 392 393 
330 331 362 363 393 394 
331 362 363 364 394 395 
363 364 394 396 
333 334 335 365 366 397 
334 336 365 366 367 397 398 
336 366 367 397 398 
337 368 369 399 400 
337 368 369 399 400 401 
338 339 370 371 401 402 
339 370 371 402 403 
310 340 341 372 
311 342 343 373 374 405 406 
342 343 344 373 374 375 405 406 
343 344 345 374 375 376 406 
344 345 346 375 376 406 
377 407 408 410 439 
346 347 348 378 379 
347 348 349 378 379 380 
380 
349 350 380 381 412 413 
351 352 382 383 
382 383 445 
352 354 383 384 416 
355 385 386 417 
355 385 386 387 417 
355 386 387 388 417 
386 387 388 389 420 
358 388 389 390 420 421 
389 390 391 420 421 422 
390 391 392 421 422 423 
361 362 391 392 393 422 423 424 
362 393 423 424 425 
362 363 364 394 395 425 
394 395 425 426 427 
364 366 396 397 428 
365 366 367 397 398 428 429 
366 367 397 398 399 429 430 
368 399 400 430 431 
368 369 399 400 430 431 432 
369 400 401 431 432 433 
370 371 402 403 433 434 
371 402 403 434 465 
404 435 466 
373 374 405 406 436 468 
344 374 375 376 405 406 
377 407 408 437 438 439 
377 407 408 410 439 440 
409 
377 408 410 411 440 441 
381 410 411 412 441 442 
350 381 411 412 413 442 
381 412 413 414 443 444 
414 415 
414 415 416 
384 414 415 416 446 447 
385 386 387 417 448 449 
418 419 450 
418 419 451 
388 389 390 420 421 
389 390 391 420 421 422 
390 391 392 421 422 423 484 
391 392 393 422 423 424 455 
392 393 394 423 424 425 455 456 
394 395 425 426 455 457 
395 425 426 427 457 458 
395 426 427 457 458 
396 397 398 428 429 459 460 
397 398 399 429 430 460 461 
398 399 430 462 
399 400 431 462 
400 401 431 432 464 
401 402 433 434 464 465 
402 403 433 434 465 
404 435 466 497 
405 406 436 437 467 468 498 
407 436 437 438 439 468 
407 408 437 438 439 468 
377 407 408 438 439 440 469 
408 410 439 440 441 471 472 
410 411 440 441 442 471 472 473 
410 411 412 441 442 472 474 
413 443 473 474 
413 414 443 444 474 475 
383 445 476 
416 446 447 476 
416 446 447 478 
417 448 449 479 480 510 
448 449 479 480 481 
450 451 452 
450 451 452 481 482 483 
451 452 482 483 484 
453 454 
453 454 
423 424 425 455 456 486 487 
455 456 486 487 
425 426 427 457 458 488 
426 427 458 489 
427 428 459 490 491 
428 429 430 460 461 491 492 
429 460 461 492 
430 431 462 463 493 
431 462 463 493 495 
432 433 464 465 494 496 
403 433 434 464 465 
404 435 466 497 
436 467 468 498 499 528 
436 437 438 467 468 498 499 
469 470 499 501 
469 470 471 501 
440 441 470 471 472 501 502 503 
442 472 502 503 504 
443 473 474 503 504 
442 443 444 473 474 504 
444 475 476 477 505 506 538 
445 446 475 476 478 508 
477 538 539 
447 476 478 479 508 509 510 
417 448 449 479 480 509 510 
448 449 479 480 481 510 511 
449 451 480 481 482 511 
451 481 482 483 544 
451 452 482 483 484 
422 483 484 485 516 
423 484 485 516 517 
455 456 486 487 488 516 518 
455 456 457 486 487 488 518 519 
457 458 488 489 520 
457 458 489 490 521 
458 459 489 490 520 521 522 
460 461 491 492 522 523 
460 461 491 492 493 523 
462 463 493 524 525 
494 526 
463 494 495 525 526 
464 496 526 527 
435 466 497 
467 468 498 499 528 529 530 
469 499 529 
500 501 502 530 531 
469 470 471 500 501 502 531 
471 472 501 502 503 
471 472 473 502 503 504 
472 473 474 503 504 505 
473 474 475 503 504 505 506 
475 505 506 538 568 
507 508 
476 478 507 508 509 540 
478 479 508 509 510 540 541 
479 510 541 
479 480 481 510 511 541 542 543 
512 513 
512 513 514 
513 514 515 
514 515 
484 485 486 516 546 547 
485 515 517 548 
486 487 488 518 519 549 550 
487 518 519 550 551 
488 489 490 520 521 552 
489 490 520 521 552 553 
490 491 522 553 554 
491 492 493 523 524 554 555 
493 524 525 555 556 
493 495 524 525 526 
494 495 525 526 558 
496 526 527 
467 498 528 529 530 559 560 
498 499 528 529 530 559 560 561 
498 499 500 529 530 531 561 
499 500 501 530 531 561 
532 533 562 563 
532 533 534 564 565 
533 534 535 564 565 566 
534 535 536 565 566 
535 536 566 
537 538 567 
475 477 506 537 538 539 
538 539 569 570 
508 509 510 540 541 571 572 
509 510 511 540 541 542 
510 511 541 542 543 572 573 574 
542 543 545 573 574 575 
482 544 545 
544 545 546 575 607 
515 516 545 546 547 
516 546 547 548 578 
517 547 548 579 
518 519 549 550 580 581 
518 519 550 551 581 582 
519 550 551 581 582 
520 521 522 552 553 583 584 
521 522 552 553 583 584 585 
522 523 554 555 585 586 
523 524 525 555 556 586 587 
524 525 555 556 557 588 
525 556 557 558 588 589 
526 557 558 589 620 
498 528 529 559 560 590 591 621 
529 559 560 561 590 621 
499 529 530 531 560 561 
532 562 592 624 
563 564 593 594 595 625 
533 534 563 564 565 595 596 
534 535 564 565 566 595 596 597 
534 535 536 565 566 597 598 
537 567 568 629 
567 568 569 
507 538 539 568 569 570 
537 539 569 570 631 
540 571 572 601 602 603 
540 541 542 571 572 573 602 603 
572 573 574 603 
542 543 573 574 575 604 605 
543 574 575 605 607 638 
576 577 606 608 
576 577 608 609 
547 578 640 
548 577 579 609 610 
549 550 580 581 611 612 
550 551 581 582 612 
550 551 582 613 614 
552 553 583 584 615 
552 553 583 584 615 616 
553 554 585 617 
554 555 556 586 587 617 618 
555 586 587 588 618 619 
556 557 588 620 
557 558 588 589 620 
529 559 560 590 621 
590 591 621 622 624 
562 592 622 623 624 
563 593 594 623 655 
593 594 595 596 626 
564 565 594 595 596 626 627 
564 565 594 595 596 597 626 627 
565 566 596 597 598 627 
566 597 598 599 660 
598 599 600 630 
599 600 601 630 632 
571 600 601 602 632 633 
571 572 601 602 603 632 633 634 
571 572 573 602 603 633 634 635 
573 574 603 604 605 634 635 
574 575 604 605 635 638 668 
576 606 636 637 
545 575 578 607 638 
577 578 608 609 639 640 
577 579 609 610 639 
579 609 610 641 642 
580 581 611 612 643 
580 581 582 611 612 613 643 644 
582 613 644 645 
582 613 614 644 645 
583 584 585 615 616 646 647 
584 615 616 646 647 
585 586 587 617 618 648 649 
586 587 588 618 619 649 650 
587 588 618 619 651 
558 588 589 620 651 
560 590 591 621 
591 592 622 624 653 
593 623 653 654 655 
591 592 622 624 
625 
594 595 596 626 627 656 
596 597 626 627 657 660 
567 628 629 659 
567 628 629 631 
599 630 632 660 661 662 
568 629 631 
600 601 630 632 633 
601 602 603 632 633 634 
602 603 604 633 634 635 
603 604 605 634 635 
606 636 637 
606 608 636 637 639 
605 607 608 638 668 669 
608 609 637 639 701 
578 608 640 670 
610 641 642 672 673 
610 641 642 672 673 
611 612 643 644 675 
612 613 614 644 645 675 676 
613 614 644 645 675 676 
615 616 646 647 677 678 
615 616 647 677 678 679 
616 617 648 680 
617 618 619 649 650 680 681 
618 619 649 650 681 682 
619 620 651 682 713 
622 652 653 683 684 715 
622 623 652 653 654 683 684 
623 653 654 655 684 685 686 
593 594 623 654 655 656 686 
655 656 657 686 687 688 
625 626 627 656 657 658 687 688 
657 658 659 688 720 
627 628 658 659 660 691 721 
598 630 659 660 661 
630 660 661 662 691 722 
630 632 661 662 663 694 
632 633 662 663 664 694 
632 633 634 663 664 665 726 
633 634 635 664 665 666 728 
634 635 665 666 667 728 
605 635 666 667 668 699 
605 638 667 668 669 
668 669 670 701 
608 640 669 670 672 701 702 
671 733 734 
640 641 670 672 673 702 703 
642 672 673 674 703 
643 673 674 706 735 
643 644 645 675 676 706 
644 645 675 676 677 706 708 
646 647 677 678 708 709 
646 647 677 678 679 709 710 
647 678 679 709 711 
648 649 650 680 681 711 712 
649 650 651 681 682 712 713 
650 651 681 682 712 713 744 
652 683 684 714 715 716 
652 653 684 685 
654 655 684 685 686 717 747 
623 654 655 656 685 686 687 717 
656 657 686 687 688 717 718 719 
656 657 658 687 688 719 720 
689 690 
689 690 
659 661 691 721 722 723 
690 692 693 
693 694 695 723 
662 663 694 724 725 726 
693 695 696 
695 696 697 
696 697 698 
697 698 
637 669 699 700 729 730 
699 700 701 730 731 732 
639 669 670 700 701 702 731 732 
670 672 701 702 703 732 
672 673 702 703 
671 704 705 734 
704 705 736 
674 675 676 706 739 
707 737 738 
676 677 678 708 709 739 740 
677 678 679 709 710 740 741 
709 710 741 742 
679 680 711 742 743 
680 681 682 712 713 743 744 
650 651 681 682 712 713 744 
683 714 715 745 
652 683 684 714 715 716 
715 716 
685 686 687 717 718 747 748 
687 688 717 718 719 748 
658 687 688 718 719 720 751 
658 719 720 721 751 
659 691 720 721 722 
661 691 721 722 723 754 
661 693 722 723 724 754 755 
694 723 724 725 754 755 
694 724 725 726 755 756 757 
694 725 726 727 728 
725 726 727 728 759 
665 666 727 728 729 759 
667 699 728 729 730 759 
699 700 729 730 731 761 
700 701 730 731 732 761 
700 701 702 731 732 763 764 
671 733 734 763 
704 733 734 736 
735 
705 734 736 
737 738 767 768 769 
707 737 738 768 769 
708 709 739 740 770 771 
709 710 740 770 771 
710 741 772 773 
710 711 741 742 773 774 
711 712 713 743 744 774 775 
681 682 712 713 744 775 
714 716 745 
746 747 776 777 778 
685 717 746 747 748 777 778 779 
687 717 718 747 748 779 
749 750 781 811 
749 750 752 781 
720 721 751 783 
750 752 753 782 784 
752 753 782 784 
722 723 724 754 755 785 786 
724 725 754 755 
756 757 786 787 788 
756 757 758 787 788 789 
757 758 788 789 
727 728 729 759 791 
760 
730 731 761 791 792 793 
762 763 
731 732 762 763 
732 764 765 794 795 796 
764 765 795 796 
766 796 798 
737 767 768 799 
737 738 767 768 799 800 
737 738 769 800 
739 740 770 771 801 802 
740 770 771 801 802 
741 772 803 804 
741 742 772 773 804 805 
742 743 774 775 806 
712 713 743 744 775 806 
715 746 776 777 778 807 808 
746 747 776 777 778 807 808 
777 778 779 808 809 840 
747 748 778 779 809 
780 812 843 
749 750 781 782 811 
752 781 782 784 813 814 
751 783 812 
752 753 782 784 814 
754 755 785 786 815 816 817 
756 785 786 787 816 817 818 
756 786 787 788 817 818 819 
787 788 789 818 819 820 
757 758 788 789 819 820 852 
759 760 790 791 821 822 
759 761 790 791 792 822 823 
761 791 792 793 824 
761 792 793 794 825 
764 793 794 795 
764 794 795 796 
764 765 795 796 826 828 
797 
766 798 799 828 829 830 
768 798 799 829 830 831 
768 769 800 831 862 
770 771 801 802 832 833 
770 771 802 832 833 
772 803 834 835 
772 773 804 805 836 
773 774 804 805 836 837 
744 774 775 806 837 
776 777 807 808 838 839 840 
777 778 807 808 809 840 
778 779 808 809 840 
810 811 842 
749 810 811 812 813 842 
780 783 812 
811 813 814 845 875 
782 784 813 814 845 
754 783 785 815 816 846 847 
785 786 815 816 817 846 847 848 
786 787 817 848 849 
787 818 819 848 849 850 
787 788 818 819 849 850 
788 789 819 820 850 851 852 
790 791 821 822 
790 791 821 822 823 
791 792 822 823 824 
792 823 824 825 
793 794 795 824 825 826 
825 826 827 
795 826 827 
796 798 828 829 858 860 
798 799 827 828 829 830 860 
798 799 829 830 860 
799 800 831 861 
801 802 832 833 863 864 
801 802 832 833 863 864 
803 804 834 835 865 866 
803 834 835 865 866 
804 805 836 867 868 
774 775 806 837 868 
807 808 838 839 840 900 901 
807 808 838 839 840 871 901 
808 809 839 840 871 
841 842 843 871 873 
810 811 842 875 
843 844 873 
812 843 844 874 
813 814 845 875 876 
815 816 846 847 877 878 
816 817 847 848 878 879 
817 818 848 849 
818 819 848 849 850 
818 819 820 849 850 851 880 881 
819 820 850 851 852 881 
789 820 851 852 853 
852 853 854 
853 854 855 
854 855 856 
855 856 857 
856 857 858 
828 857 858 
859 
828 829 830 860 861 890 891 892 
831 861 891 893 
862 893 
832 833 863 864 894 895 
832 833 863 864 894 895 
834 835 865 866 896 897 
834 835 865 866 896 897 
836 867 868 898 899 
836 837 867 868 899 
869 870 
869 870 902 
839 840 841 871 901 903 
842 870 872 902 
843 873 874 903 905 
843 844 873 874 905 
813 842 845 875 876 906 
845 875 876 906 
846 847 877 878 907 908 909 
847 878 879 908 909 910 
847 878 879 880 909 910 
879 880 881 910 
849 850 851 880 881 911 912 
882 883 884 913 
882 883 884 885 913 915 
882 883 884 885 916 
823 883 884 885 886 916 
824 885 886 887 916 917 
886 887 888 917 919 
887 888 889 917 919 920 
888 889 890 919 920 
860 889 890 891 920 
860 861 890 891 892 923 
860 891 892 922 923 
861 862 893 924 
863 864 894 895 925 926 
863 864 894 895 925 926 
865 866 896 897 927 928 
865 897 928 
867 898 899 930 
867 868 898 899 930 961 
838 839 900 901 931 
871 900 901 931 933 
870 872 902 932 934 
871 873 903 905 
904 906 934 937 
873 874 905 935 936 
875 876 904 906 937 
877 907 908 938 939 
877 878 907 908 909 938 939 940 
878 879 909 910 940 941 
879 880 909 910 941 942 
880 881 910 911 912 941 942 
880 881 911 912 942 943 
882 883 884 913 914 944 
913 914 915 
883 914 915 947 
883 884 885 886 916 917 
885 886 887 888 916 917 919 
918 947 951 
886 887 888 889 917 919 920 
888 889 890 919 920 
921 922 952 953 
892 921 922 923 952 953 954 
892 922 923 925 954 955 
893 924 
894 895 925 926 955 956 957 
894 895 925 926 956 957 
896 897 927 928 958 959 
896 928 929 959 960 
928 929 959 960 961 
898 899 930 961 
838 900 901 931 933 
870 902 932 934 
901 903 931 933 935 
872 902 904 932 934 
905 933 935 936 
905 907 935 936 938 
904 906 937 
905 907 908 936 938 939 940 
907 908 909 938 939 940 941 
878 908 909 910 939 940 941 942 
909 910 911 940 941 942 
880 910 911 912 940 941 942 943 
911 912 941 942 943 945 
913 914 915 944 
912 943 945 946 
945 946 948 
915 918 947 
917 945 946 948 949 
948 949 950 952 
921 949 950 952 953 
918 951 
921 922 950 952 953 954 
921 922 923 952 953 954 
922 923 925 953 954 955 956 
894 923 925 926 954 955 956 957 
925 926 954 955 956 957 
925 926 955 956 957 
896 927 928 958 959 960 
897 927 928 929 958 959 960 961 
928 929 958 959 960 961 
898 928 929 930 959 960 961 
61
208
57
81
148
100
178
185
134
118
110
179
56
64
171
87
127
69
44
145
191
106
175
102
125
155
158
176
78
67
53
93
210
41
102
156
169
182
189
191
189
190
193
190
176
173
29
32
30
21
182
129
85
119
150
154
165
178
154
158
166
175
69
71
113
99
159
171
185
187
195
195
193
195
189
174
172
28
20
29
28
179
104
159
181
172
177
184
179
175
165
167
163
65
71
200
86
156
166
181
161
184
180
187
193
188
173
163
155
128
38
123
96
164
199
200
192
194
195
223
200
179
176
171
59
63
134
75
85
62
76
51
75
55
113
65
100
104
172
102
167
113
53
178
199
202
196
192
194
197
223
197
193
193
188
70
64
63
72
59
62
49
58
45
48
139
91
156
197
200
190
190
179
138
186
195
194
189
190
194
194
200
200
197
196
196
73
68
71
83
62
64
43
49
46
164
149
47
90
193
138
108
197
60
169
177
189
190
183
185
189
195
197
198
197
197
198
76
69
78
75
74
58
55
49
52
131
98
97
174
208
203
202
151
76
164
183
195
191
180
180
185
190
195
198
197
198
199
80
77
77
81
57
63
49
52
50
175
151
48
89
201
103
132
147
53
159
174
184
190
176
175
182
186
190
197
198
196
198
80
72
76
72
69
65
53
49
57
47
140
119
179
202
204
196
180
84
34
175
177
186
180
177
178
182
187
193
197
197
196
79
83
79
74
84
62
52
53
49
137
167
69
73
205
196
132
51
52
23
163
169
187
182
181
178
180
186
188
192
197
197
77
84
88
81
79
63
56
61
53
181
105
53
111
200
129
79
174
64
24
146
165
173
173
181
180
180
184
185
190
193
196
82
77
92
70
9
70
69
82
62
129
164
131
193
210
208
205
192
196
180
141
159
170
166
174
180
181
183
184
186
191
193
211
87
85
6
9
128
33
44
45
19
52
57
99
201
124
138
205
210
174
151
158
168
165
165
176
180
182
184
186
189
191
212
27
12
14
20
20
49
42
9
50
165
107
130
188
179
95
127
118
70
103
169
175
167
163
171
179
180
183
182
187
191
209
23
23
46
63
47
36
21
30
88
125
61
161
186
182
158
146
137
151
142
176
177
167
162
167
177
179
182
185
183
187
213
16
45
14
40
38
32
27
59
94
158
168
182
194
182
84
82
92
107
160
125
179
181
169
164
172
178
182
183
184
186
13
35
15
33
123
143
200
214
211
22
60
67
180
186
184
199
141
168
140
153
135
168
183
182
165
167
176
180
181
181
183
38
17
28
107
184
196
213
211
81
109
111
48
207
217
217
216
193
96
103
163
121
163
179
189
169
163
171
178
178
180
182
20
74
131
193
210
212
216
214
218
214
210
211
213
212
196
204
80
199
132
105
112
166
175
195
183
164
165
175
178
178
181
34
114
179
97
141
213
213
112
95
213
88
212
217
216
211
50
91
184
107
146
124
120
164
192
192
168
162
170
176
176
179
137
157
175
187
184
177
127
163
210
160
166
168
165
156
156
158
170
143
148
29
125
114
124
183
192
163
163
164
172
177
178
116
147
167
176
172
166
32
29
128
35
87
135
48
37
50
41
114
111
117
147
114
32
44
165
109
183
162
158
169
176
178
96
116
95
166
171
160
119
115
126
135
153
163
141
129
138
117
110
125
111
49
35
176
29
113
88
183
167
155
162
172
177
61
176
193
191
37
52
117
39
46
176
180
209
205
203
152
23
135
68
90
136
124
204
119
125
76
173
168
151
158
168
175
161
203
209
210
119
43
43
122
53
211
215
219
219
215
90
116
138
145
151
148
155
54
181
152
100
178
163
145
155
160
173
205
210
211
39
44
105
38
40
175
209
217
221
221
216
57
80
101
107
123
117
102
192
149
171
130
172
172
147
144
156
168
174
190
207
108
53
173
124
55
198
212
219
220
220
213
197
181
197
196
188
192
189
59
159
124
91
173
166
145
146
155
163
39
41
155
42
158
158
49
37
198
211
214
215
216
118
104
119
133
132
133
131
131
132
138
167
118
175
171
147
142
153
157
183
178
53
124
47
136
47
186
208
215
215
218
217
71
16
55
120
125
68
124
127
180
182
169
103
172
174
148
145
147
154
196
54
168
49
188
196
37
190
206
212
215
215
205
89
182
177
70
175
181
174
64
177
183
170
158
175
169
148
146
148
150
